DIMACS2
20 308 60 56 73 43 48 212 71 289 226 312 68 272 237 206 291 264 176 293 225
p edge 320 2323
e 0 62 1.0
e 0 45 2.0
e 0 181 1.0
e 0 252 2.0
e 1 142 1.0
e 1 64 3.0
e 1 105 1.0
e 1 316 1.0
e 1 59 4.0
e 1 257 7.0
e 2 90 1.0
e 2 77 1.0
e 2 31 4.0
e 3 160 1.0
e 4 124 5.0
e 4 190 1.0
e 4 250 4.0
e 4 28 1.0
e 4 33 3.0
e 4 64 1.0
e 4 96 4.0
e 4 20 1.0
e 4 21 1.0
e 4 65 8.0
e 4 36 5.0
e 5 267 2.0
e 5 180 1.0
e 5 215 2.0
e 6 101 12.0
e 6 0 10.0
e 6 170 2.0
e 6 135 12.0
e 6 231 10.0
e 6 56 8.0
e 6 92 6.0
e 6 279 9.0
e 6 166 9.0
e 6 131 8.0
e 6 177 9.0
e 6 7 1.0
e 6 69 10.0
e 6 282 8.0
e 6 104 1.0
e 6 178 1.0
e 6 111 1.0
e 6 114 7.0
e 6 33 7.0
e 7 133 1.0
e 8 191 1.0
e 8 151 1.0
e 8 214 1.0
e 9 180 1.0
e 10 128 1.0
e 10 236 1.0
e 10 242 2.0
e 10 302 3.0
e 10 110 2.0
e 10 18 1.0
e 10 275 1.0
e 10 129 4.0
e 10 109 1.0
e 10 253 1.0
e 10 280 5.0
e 11 55 1.0
e 11 58 8.0
e 11 208 1.0
e 12 230 1.0
e 12 105 2.0
e 12 166 1.0
e 12 289 44.0
e 12 156 3.0
e 12 107 4.0
e 12 115 1.0
e 12 229 5.0
e 12 91 4.0
e 12 126 6.0
e 12 263 3.0
e 13 210 1.0
e 13 254 1.0
e 13 83 2.0
e 14 156 1.0
e 14 309 1.0
e 15 235 1.0
e 15 296 1.0
e 15 38 2.0
e 16 93 2.0
e 16 8 1.0
e 16 239 1.0
e 16 214 1.0
e 16 145 5.0
e 17 150 1.0
e 17 154 1.0
e 17 69 1.0
e 18 39 1.0
e 18 19 1.0
e 19 226 35.0
e 19 281 1.0
e 19 88 3.0
e 19 9 2.0
e 19 198 4.0
e 19 38 1.0
e 19 245 2.0
e 19 8 4.0
e 20 104 1.0
e 21 26 2.0
e 21 276 2.0
e 21 17 2.0
e 21 265 6.0
e 22 3 1.0
e 23 153 1.0
e 23 164 2.0
e 23 41 2.0
e 23 265 3.0
e 23 189 3.0
e 23 137 1.0
e 24 53 1.0
e 24 258 1.0
e 24 165 4.0
e 24 196 1.0
e 24 116 2.0
e 24 148 1.0
e 25 202 4.0
e 25 304 1.0
e 25 160 1.0
e 25 34 1.0
e 25 291 36.0
e 25 155 3.0
e 25 144 1.0
e 25 116 5.0
e 25 26 4.0
e 25 56 25.0
e 25 105 2.0
e 26 166 1.0
e 27 36 1.0
e 27 128 1.0
e 28 318 2.0
e 28 237 10.0
e 28 21 1.0
e 28 191 2.0
e 28 123 2.0
e 29 283 1.0
e 29 2 1.0
e 29 3 1.0
e 30 109 1.0
e 30 85 1.0
e 31 37 2.0
e 31 123 5.0
e 31 279 4.0
e 31 85 1.0
e 31 219 5.0
e 31 277 1.0
e 31 88 3.0
e 31 303 1.0
e 31 13 2.0
e 31 259 1.0
e 32 191 1.0
e 32 52 1.0
e 33 74 1.0
e 33 80 2.0
e 33 67 6.0
e 33 240 1.0
e 33 102 1.0
e 33 158 3.0
e 33 50 3.0
e 33 116 2.0
e 34 309 1.0
e 34 80 1.0
e 34 174 1.0
e 34 253 1.0
e 34 308 13.0
e 34 291 47.0
e 34 171 2.0
e 34 26 1.0
e 34 207 1.0
e 35 269 1.0
e 36 298 3.0
e 36 107 1.0
e 36 44 2.0
e 36 289 35.0
e 37 16 1.0
e 38 124 2.0
e 38 317 4.0
e 38 145 4.0
e 38 212 15.0
e 39 94 1.0
e 39 17 1.0
e 40 66 1.0
e 40 308 11.0
e 40 101 1.0
e 41 27 1.0
e 41 265 1.0
e 42 153 1.0
e 42 300 1.0
e 43 6 17.0
e 43 248 8.0
e 43 55 42.0
e 43 259 2.0
e 43 131 12.0
e 43 267 42.0
e 43 207 27.0
e 43 138 11.0
e 43 164 30.0
e 43 200 34.0
e 43 121 11.0
e 43 108 41.0
e 43 190 44.0
e 43 279 32.0
e 43 193 12.0
e 43 132 16.0
e 43 220 31.0
e 43 78 3.0
e 43 246 4.0
e 43 161 48.0
e 43 264 10.0
e 43 240 44.0
e 43 12 35.0
e 43 56 40.0
e 43 92 27.0
e 43 304 16.0
e 43 274 20.0
e 43 284 35.0
e 43 162 48.0
e 43 76 13.0
e 43 7 22.0
e 43 84 33.0
e 43 22 3.0
e 43 249 34.0
e 43 247 40.0
e 43 142 30.0
e 43 253 35.0
e 43 262 4.0
e 43 305 25.0
e 43 103 48.0
e 43 44 21.0
e 43 136 9.0
e 43 79 39.0
e 43 254 44.0
e 43 34 36.0
e 43 261 1.0
e 43 81 18.0
e 43 106 35.0
e 43 21 33.0
e 43 8 10.0
e 43 268 16.0
e 43 209 31.0
e 43 252 42.0
e 43 20 9.0
e 43 208 8.0
e 43 312 13.0
e 43 94 41.0
e 43 61 40.0
e 43 180 12.0
e 43 71 12.0
e 43 147 24.0
e 43 140 18.0
e 43 109 39.0
e 43 237 3.0
e 43 292 24.0
e 43 3 49.0
e 43 116 14.0
e 43 80 21.0
e 43 182 24.0
e 43 100 27.0
e 43 186 1.0
e 43 255 46.0
e 43 201 20.0
e 43 187 13.0
e 43 317 35.0
e 43 117 32.0
e 43 29 35.0
e 43 225 44.0
e 43 238 22.0
e 44 143 1.0
e 45 20 2.0
e 45 195 1.0
e 45 162 2.0
e 45 237 41.0
e 45 250 1.0
e 46 144 3.0
e 46 172 5.0
e 46 281 5.0
e 46 228 5.0
e 46 54 3.0
e 46 290 1.0
e 46 20 1.0
e 46 76 2.0
e 47 188 2.0
e 47 227 1.0
e 47 152 1.0
e 48 200 46.0
e 48 78 48.0
e 48 198 21.0
e 48 185 45.0
e 48 302 3.0
e 48 146 49.0
e 48 283 6.0
e 48 235 11.0
e 48 290 16.0
e 48 269 44.0
e 48 256 43.0
e 48 201 29.0
e 48 276 21.0
e 48 112 43.0
e 48 170 41.0
e 48 299 13.0
e 48 238 5.0
e 48 57 17.0
e 48 202 38.0
e 48 236 47.0
e 48 31 47.0
e 48 11 1.0
e 48 147 44.0
e 48 259 44.0
e 48 197 32.0
e 48 76 6.0
e 48 294 43.0
e 48 156 29.0
e 48 131 36.0
e 48 186 12.0
e 48 277 42.0
e 48 120 29.0
e 48 92 23.0
e 48 165 23.0
e 48 173 28.0
e 48 285 41.0
e 48 113 16.0
e 48 289 45.0
e 48 260 15.0
e 48 245 7.0
e 48 72 27.0
e 48 293 3.0
e 48 234 17.0
e 48 30 45.0
e 48 9 26.0
e 48 87 15.0
e 48 163 19.0
e 48 27 40.0
e 48 32 16.0
e 48 33 44.0
e 48 301 49.0
e 48 278 40.0
e 48 140 43.0
e 48 46 16.0
e 48 34 38.0
e 48 138 7.0
e 48 127 2.0
e 48 128 7.0
e 48 157 33.0
e 48 167 40.0
e 48 110 31.0
e 48 4 9.0
e 48 69 29.0
e 48 111 4.0
e 48 213 5.0
e 48 250 40.0
e 48 281 15.0
e 48 44 43.0
e 48 66 10.0
e 48 191 21.0
e 48 50 37.0
e 48 107 38.0
e 48 295 10.0
e 48 266 32.0
e 48 298 12.0
e 48 121 48.0
e 48 39 26.0
e 48 287 31.0
e 48 122 28.0
e 49 100 1.0
e 49 280 1.0
e 50 187 1.0
e 51 62 1.0
e 51 285 1.0
e 51 156 1.0
e 52 290 1.0
e 53 165 11.0
e 54 119 1.0
e 54 6 7.0
e 55 255 1.0
e 56 198 15.0
e 56 33 32.0
e 56 278 26.0
e 56 68 44.0
e 56 175 49.0
e 56 169 27.0
e 56 247 32.0
e 56 257 1.0
e 56 26 21.0
e 56 106 38.0
e 56 238 15.0
e 56 134 18.0
e 56 255 1.0
e 56 151 7.0
e 56 122 7.0
e 56 279 30.0
e 56 146 42.0
e 56 78 6.0
e 56 148 35.0
e 56 298 18.0
e 56 294 47.0
e 56 77 30.0
e 56 295 47.0
e 56 147 10.0
e 56 217 24.0
e 56 12 7.0
e 56 69 27.0
e 56 108 19.0
e 56 154 32.0
e 56 107 38.0
e 56 89 28.0
e 56 133 26.0
e 56 149 22.0
e 56 109 33.0
e 56 110 35.0
e 56 251 18.0
e 56 273 39.0
e 56 211 19.0
e 56 264 15.0
e 56 239 39.0
e 56 202 38.0
e 56 70 42.0
e 56 254 32.0
e 56 250 13.0
e 56 194 2.0
e 56 100 49.0
e 56 256 24.0
e 56 300 44.0
e 56 282 47.0
e 56 285 5.0
e 56 195 20.0
e 56 84 7.0
e 56 220 20.0
e 56 183 3.0
e 56 187 43.0
e 56 228 3.0
e 56 271 26.0
e 56 317 37.0
e 56 162 1.0
e 56 177 26.0
e 56 212 18.0
e 56 79 32.0
e 56 34 49.0
e 56 129 23.0
e 56 240 33.0
e 56 57 44.0
e 56 141 6.0
e 56 142 20.0
e 56 311 36.0
e 56 83 28.0
e 56 210 21.0
e 56 280 31.0
e 56 28 42.0
e 56 58 21.0
e 56 170 33.0
e 56 299 11.0
e 56 215 14.0
e 57 229 1.0
e 58 276 4.0
e 58 219 5.0
e 58 265 11.0
e 58 208 1.0
e 58 290 7.0
e 58 294 3.0
e 58 87 1.0
e 58 142 1.0
e 58 59 1.0
e 58 261 5.0
e 58 78 9.0
e 58 20 7.0
e 58 31 10.0
e 58 72 9.0
e 58 297 6.0
e 58 104 9.0
e 58 24 11.0
e 59 46 5.0
e 59 64 3.0
e 59 31 3.0
e 59 8 1.0
e 59 194 6.0
e 59 243 1.0
e 59 188 4.0
e 59 56 30.0
e 59 130 4.0
e 60 257 33.0
e 60 259 11.0
e 60 173 20.0
e 60 191 48.0
e 60 68 10.0
e 60 275 33.0
e 60 26 9.0
e 60 73 3.0
e 60 189 5.0
e 60 75 20.0
e 60 111 33.0
e 60 102 9.0
e 60 27 27.0
e 60 243 9.0
e 60 140 20.0
e 60 42 3.0
e 60 112 35.0
e 60 84 3.0
e 60 114 2.0
e 60 2 16.0
e 60 199 41.0
e 60 63 37.0
e 60 139 1.0
e 60 314 17.0
e 60 232 44.0
e 60 137 10.0
e 60 167 32.0
e 60 141 22.0
e 60 212 38.0
e 60 225 37.0
e 60 17 11.0
e 60 144 37.0
e 60 308 31.0
e 60 49 25.0
e 60 218 8.0
e 60 96 7.0
e 60 155 10.0
e 60 261 49.0
e 60 256 27.0
e 60 222 22.0
e 60 180 46.0
e 60 240 8.0
e 60 220 25.0
e 60 38 6.0
e 60 247 27.0
e 60 171 12.0
e 60 161 45.0
e 60 142 24.0
e 60 207 39.0
e 60 31 32.0
e 60 87 10.0
e 60 262 14.0
e 60 168 20.0
e 60 204 13.0
e 60 58 19.0
e 60 311 6.0
e 60 205 2.0
e 60 3 7.0
e 60 177 9.0
e 60 282 15.0
e 60 276 18.0
e 60 216 17.0
e 60 78 4.0
e 60 5 37.0
e 60 131 26.0
e 60 241 46.0
e 60 184 39.0
e 60 118 27.0
e 60 34 27.0
e 60 237 44.0
e 60 149 26.0
e 60 13 16.0
e 60 138 5.0
e 60 119 21.0
e 60 43 4.0
e 60 83 17.0
e 60 172 9.0
e 60 22 38.0
e 60 226 31.0
e 60 206 28.0
e 60 33 26.0
e 61 232 4.0
e 61 160 5.0
e 61 189 5.0
e 61 146 6.0
e 61 317 2.0
e 61 69 3.0
e 61 217 5.0
e 61 111 4.0
e 61 207 5.0
e 62 111 1.0
e 63 231 1.0
e 63 307 1.0
e 64 253 3.0
e 64 257 5.0
e 64 248 4.0
e 64 97 5.0
e 64 93 6.0
e 64 178 4.0
e 64 286 1.0
e 64 249 2.0
e 65 93 1.0
e 65 255 1.0
e 65 79 11.0
e 65 286 10.0
e 65 283 8.0
e 65 222 1.0
e 65 6 2.0
e 65 128 11.0
e 65 46 9.0
e 65 208 9.0
e 65 280 9.0
e 65 189 4.0
e 65 27 1.0
e 65 7 10.0
e 65 105 8.0
e 65 89 2.0
e 65 73 28.0
e 65 163 8.0
e 65 183 3.0
e 65 136 2.0
e 66 9 1.0
e 67 66 1.0
e 67 169 1.0
e 68 302 24.0
e 68 252 28.0
e 68 133 3.0
e 68 159 5.0
e 68 134 22.0
e 68 65 37.0
e 68 219 2.0
e 68 208 31.0
e 68 58 5.0
e 68 5 42.0
e 68 285 48.0
e 68 66 10.0
e 68 109 42.0
e 68 184 27.0
e 68 59 4.0
e 68 144 11.0
e 68 273 37.0
e 68 182 33.0
e 68 306 43.0
e 68 277 9.0
e 68 6 38.0
e 68 160 42.0
e 68 97 17.0
e 68 156 31.0
e 68 161 48.0
e 68 25 15.0
e 68 276 24.0
e 68 22 5.0
e 68 74 47.0
e 68 230 43.0
e 68 162 32.0
e 68 104 38.0
e 68 183 42.0
e 68 55 13.0
e 68 1 22.0
e 68 7 43.0
e 68 98 10.0
e 68 149 3.0
e 68 286 31.0
e 68 122 8.0
e 68 220 28.0
e 68 221 45.0
e 68 27 31.0
e 68 35 12.0
e 68 73 17.0
e 68 116 42.0
e 68 238 12.0
e 68 278 28.0
e 68 141 13.0
e 68 279 42.0
e 68 189 23.0
e 68 138 27.0
e 68 136 36.0
e 68 190 18.0
e 68 231 9.0
e 68 150 22.0
e 68 233 29.0
e 68 291 14.0
e 68 94 28.0
e 68 256 16.0
e 68 257 22.0
e 68 31 8.0
e 68 61 4.0
e 68 304 15.0
e 68 57 7.0
e 68 254 39.0
e 68 140 23.0
e 68 152 48.0
e 68 250 23.0
e 68 39 1.0
e 68 8 29.0
e 68 9 37.0
e 68 303 13.0
e 68 139 28.0
e 68 115 46.0
e 68 84 37.0
e 68 124 39.0
e 68 75 5.0
e 69 76 2.0
e 70 206 16.0
e 70 101 1.0
e 70 143 1.0
e 71 182 34.0
e 71 3 33.0
e 71 38 9.0
e 71 188 44.0
e 71 148 43.0
e 71 96 26.0
e 71 217 22.0
e 71 254 32.0
e 71 126 31.0
e 71 0 34.0
e 71 266 27.0
e 71 7 7.0
e 71 110 7.0
e 71 129 25.0
e 71 207 10.0
e 71 203 28.0
e 71 32 45.0
e 71 117 46.0
e 71 166 45.0
e 71 190 8.0
e 71 219 12.0
e 71 4 29.0
e 71 205 21.0
e 71 123 32.0
e 71 59 28.0
e 71 93 9.0
e 71 154 1.0
e 71 208 40.0
e 71 20 46.0
e 71 57 44.0
e 71 14 15.0
e 71 90 4.0
e 71 157 21.0
e 71 196 10.0
e 71 52 41.0
e 71 225 29.0
e 71 45 23.0
e 71 221 19.0
e 71 122 25.0
e 71 113 15.0
e 71 37 11.0
e 71 39 36.0
e 71 296 4.0
e 71 69 34.0
e 71 18 45.0
e 71 290 48.0
e 71 267 40.0
e 71 101 15.0
e 71 291 46.0
e 71 306 48.0
e 71 231 4.0
e 71 47 16.0
e 71 167 11.0
e 71 102 23.0
e 71 299 19.0
e 71 76 44.0
e 71 218 46.0
e 71 274 44.0
e 71 240 30.0
e 71 103 48.0
e 71 124 42.0
e 71 195 44.0
e 71 24 30.0
e 71 211 26.0
e 71 302 40.0
e 71 271 3.0
e 71 258 43.0
e 71 55 14.0
e 71 50 36.0
e 71 56 15.0
e 71 255 43.0
e 71 315 11.0
e 71 216 44.0
e 71 149 4.0
e 71 273 13.0
e 71 155 21.0
e 71 169 46.0
e 71 212 8.0
e 71 264 27.0
e 72 107 1.0
e 73 315 27.0
e 73 63 32.0
e 73 305 2.0
e 73 209 25.0
e 73 269 36.0
e 73 230 23.0
e 73 69 13.0
e 73 272 5.0
e 73 8 21.0
e 73 64 27.0
e 73 35 6.0
e 73 169 10.0
e 73 105 11.0
e 73 113 33.0
e 73 167 33.0
e 73 204 20.0
e 73 238 48.0
e 73 318 20.0
e 73 111 13.0
e 73 55 16.0
e 73 143 3.0
e 73 194 25.0
e 73 20 17.0
e 73 200 10.0
e 73 124 27.0
e 73 206 47.0
e 73 306 20.0
e 73 247 18.0
e 73 145 37.0
e 73 212 21.0
e 73 273 19.0
e 73 308 1.0
e 73 285 9.0
e 73 317 2.0
e 73 275 29.0
e 73 197 23.0
e 73 274 16.0
e 73 268 49.0
e 73 186 26.0
e 73 36 4.0
e 73 66 37.0
e 73 39 29.0
e 73 231 35.0
e 73 82 7.0
e 73 114 39.0
e 73 121 28.0
e 73 252 38.0
e 73 210 18.0
e 73 225 26.0
e 73 67 2.0
e 73 286 12.0
e 73 117 1.0
e 73 164 28.0
e 73 182 47.0
e 73 264 27.0
e 73 178 11.0
e 73 86 48.0
e 73 205 42.0
e 73 183 33.0
e 73 307 10.0
e 73 127 34.0
e 73 283 47.0
e 73 153 27.0
e 73 301 39.0
e 73 85 29.0
e 73 101 4.0
e 73 296 46.0
e 73 232 22.0
e 73 78 7.0
e 73 122 34.0
e 73 219 13.0
e 73 97 13.0
e 73 193 1.0
e 73 42 16.0
e 73 25 43.0
e 73 9 13.0
e 73 45 20.0
e 74 188 1.0
e 75 171 1.0
e 76 299 1.0
e 77 192 1.0
e 77 248 1.0
e 78 105 1.0
e 79 194 3.0
e 80 142 1.0
e 81 305 1.0
e 81 159 1.0
e 81 142 1.0
e 81 109 1.0
e 82 110 1.0
e 83 299 1.0
e 84 70 1.0
e 84 196 2.0
e 84 259 5.0
e 84 146 1.0
e 84 220 10.0
e 84 295 2.0
e 84 21 1.0
e 85 103 1.0
e 86 254 1.0
e 86 241 1.0
e 87 211 1.0
e 88 55 2.0
e 88 33 2.0
e 89 195 1.0
e 89 247 1.0
e 89 265 2.0
e 90 194 1.0
e 91 177 1.0
e 92 292 3.0
e 92 146 2.0
e 92 83 1.0
e 93 43 6.0
e 93 136 1.0
e 94 37 1.0
e 95 19 3.0
e 95 193 1.0
e 95 39 2.0
e 95 146 1.0
e 95 75 2.0
e 95 221 1.0
e 96 112 1.0
e 96 164 1.0
e 97 53 1.0
e 98 46 5.0
e 98 275 1.0
e 99 211 1.0
e 99 262 1.0
e 99 250 1.0
e 100 153 1.0
e 101 187 1.0
e 102 221 2.0
e 103 159 1.0
e 104 260 2.0
e 104 315 1.0
e 105 300 1.0
e 106 272 22.0
e 106 294 11.0
e 106 141 11.0
e 106 48 44.0
e 106 154 8.0
e 106 142 1.0
e 106 69 10.0
e 106 172 3.0
e 106 114 8.0
e 106 104 1.0
e 106 243 12.0
e 106 274 7.0
e 106 145 5.0
e 106 308 16.0
e 106 86 8.0
e 106 265 10.0
e 106 268 6.0
e 106 29 1.0
e 107 113 1.0
e 108 137 1.0
e 109 62 1.0
e 110 268 1.0
e 111 161 1.0
e 112 202 1.0
e 112 237 35.0
e 112 109 3.0
e 113 105 1.0
e 114 223 1.0
e 115 42 1.0
e 115 183 2.0
e 115 209 1.0
e 115 74 1.0
e 116 148 1.0
e 117 276 5.0
e 118 73 8.0
e 118 55 1.0
e 118 56 9.0
e 118 137 2.0
e 119 167 1.0
e 120 145 3.0
e 120 270 1.0
e 121 178 2.0
e 121 58 10.0
e 121 79 1.0
e 122 72 1.0
e 123 175 1.0
e 124 58 9.0
e 125 164 1.0
e 125 205 2.0
e 125 250 1.0
e 126 265 3.0
e 126 16 3.0
e 126 137 1.0
e 127 245 1.0
e 127 141 2.0
e 127 114 1.0
e 128 272 47.0
e 128 56 32.0
e 128 302 2.0
e 128 156 2.0
e 128 130 2.0
e 128 86 4.0
e 128 275 1.0
e 129 53 1.0
e 129 67 1.0
e 130 251 1.0
e 131 259 1.0
e 132 136 1.0
e 132 188 1.0
e 133 284 3.0
e 133 148 2.0
e 133 170 3.0
e 134 314 1.0
e 135 266 1.0
e 135 239 1.0
e 135 41 2.0
e 135 123 2.0
e 136 292 2.0
e 137 290 1.0
e 138 247 1.0
e 139 80 2.0
e 139 39 2.0
e 139 293 42.0
e 139 228 1.0
e 140 97 1.0
e 141 165 7.0
e 142 285 1.0
e 143 147 1.0
e 144 22 1.0
e 144 90 4.0
e 144 95 4.0
e 144 47 6.0
e 144 152 2.0
e 144 19 3.0
e 144 91 2.0
e 145 164 1.0
e 145 262 5.0
e 145 271 3.0
e 145 117 1.0
e 145 308 33.0
e 145 69 5.0
e 146 269 1.0
e 147 288 2.0
e 147 170 11.0
e 148 155 1.0
e 149 35 1.0
e 150 216 1.0
e 150 181 3.0
e 150 318 2.0
e 151 316 1.0
e 152 276 1.0
e 153 70 1.0
e 154 218 2.0
e 155 177 1.0
e 156 282 2.0
e 157 195 2.0
e 157 97 2.0
e 157 227 1.0
e 158 257 6.0
e 158 63 1.0
e 158 127 2.0
e 158 89 2.0
e 159 255 1.0
e 160 211 1.0
e 161 255 4.0
e 161 163 2.0
e 161 28 4.0
e 161 222 4.0
e 161 131 1.0
e 161 35 1.0
e 162 204 1.0
e 163 265 6.0
e 163 90 1.0
e 163 14 2.0
e 164 256 2.0
e 165 291 18.0
e 165 37 11.0
e 165 270 10.0
e 165 64 8.0
e 165 243 10.0
e 165 26 3.0
e 165 179 1.0
e 165 3 6.0
e 165 61 7.0
e 165 272 16.0
e 165 60 10.0
e 165 73 3.0
e 165 5 9.0
e 165 28 8.0
e 165 262 8.0
e 166 77 1.0
e 167 54 1.0
e 168 257 3.0
e 168 214 1.0
e 169 109 1.0
e 170 312 37.0
e 170 293 44.0
e 170 318 2.0
e 170 171 5.0
e 170 129 1.0
e 170 195 3.0
e 170 244 8.0
e 170 158 2.0
e 170 49 1.0
e 170 153 3.0
e 170 88 7.0
e 170 163 7.0
e 170 308 38.0
e 170 25 9.0
e 170 96 6.0
e 170 52 10.0
e 171 81 1.0
e 172 308 18.0
e 172 245 1.0
e 172 96 1.0
e 172 168 4.0
e 172 105 4.0
e 172 91 1.0
e 172 160 2.0
e 172 169 5.0
e 173 235 2.0
e 173 286 2.0
e 174 173 2.0
e 175 178 4.0
e 176 196 17.0
e 176 124 1.0
e 176 23 16.0
e 176 166 21.0
e 176 73 16.0
e 176 213 48.0
e 176 51 35.0
e 176 112 3.0
e 176 158 5.0
e 176 219 6.0
e 176 151 5.0
e 176 286 43.0
e 176 206 7.0
e 176 9 35.0
e 176 46 44.0
e 176 98 14.0
e 176 288 8.0
e 176 283 19.0
e 176 280 35.0
e 176 99 13.0
e 176 165 40.0
e 176 312 9.0
e 176 162 21.0
e 176 292 7.0
e 176 92 11.0
e 176 64 18.0
e 176 52 38.0
e 176 209 33.0
e 176 13 5.0
e 176 229 41.0
e 176 113 25.0
e 176 14 47.0
e 176 16 33.0
e 176 5 21.0
e 176 232 38.0
e 176 87 10.0
e 176 203 10.0
e 176 225 21.0
e 176 242 37.0
e 176 250 29.0
e 176 26 45.0
e 176 88 13.0
e 176 193 27.0
e 176 252 16.0
e 176 94 44.0
e 176 136 28.0
e 176 197 16.0
e 176 238 48.0
e 176 190 1.0
e 176 139 39.0
e 176 91 47.0
e 176 100 8.0
e 176 12 41.0
e 176 143 24.0
e 176 95 18.0
e 176 164 35.0
e 176 110 5.0
e 176 306 23.0
e 176 258 49.0
e 176 313 31.0
e 176 89 26.0
e 176 287 49.0
e 176 191 17.0
e 176 174 2.0
e 176 290 43.0
e 176 185 46.0
e 176 152 43.0
e 176 62 48.0
e 176 233 39.0
e 176 142 34.0
e 176 245 10.0
e 176 137 44.0
e 176 194 19.0
e 176 178 29.0
e 176 72 5.0
e 176 311 37.0
e 176 226 24.0
e 176 281 38.0
e 176 216 1.0
e 176 69 44.0
e 176 118 41.0
e 177 126 1.0
e 178 48 32.0
e 178 281 1.0
e 178 165 9.0
e 178 270 1.0
e 179 270 2.0
e 179 177 1.0
e 179 48 36.0
e 179 92 1.0
e 179 238 1.0
e 180 52 1.0
e 181 78 1.0
e 182 49 1.0
e 182 77 2.0
e 183 140 1.0
e 184 165 4.0
e 185 257 2.0
e 185 316 1.0
e 185 68 4.0
e 185 171 1.0
e 186 14 1.0
e 187 157 1.0
e 188 213 2.0
e 189 160 1.0
e 190 9 1.0
e 191 285 1.0
e 192 230 1.0
e 193 308 1.0
e 193 4 2.0
e 193 294 1.0
e 193 5 2.0
e 193 64 3.0
e 193 226 34.0
e 193 136 6.0
e 194 82 2.0
e 195 231 1.0
e 196 283 9.0
e 196 10 7.0
e 196 171 10.0
e 196 42 10.0
e 196 261 1.0
e 196 175 7.0
e 196 166 7.0
e 196 174 1.0
e 196 296 1.0
e 196 257 11.0
e 196 230 5.0
e 196 231 12.0
e 196 262 7.0
e 196 266 9.0
e 196 258 6.0
e 196 117 3.0
e 196 144 1.0
e 197 204 1.0
e 198 175 1.0
e 198 155 4.0
e 198 267 3.0
e 198 118 2.0
e 198 17 4.0
e 198 30 5.0
e 198 200 3.0
e 199 192 1.0
e 199 256 2.0
e 200 88 5.0
e 200 65 5.0
e 200 66 4.0
e 200 130 2.0
e 200 308 41.0
e 200 232 2.0
e 200 144 3.0
e 201 135 2.0
e 202 13 2.0
e 203 56 42.0
e 203 18 1.0
e 203 100 2.0
e 204 30 1.0
e 205 3 2.0
e 205 87 3.0
e 206 288 39.0
e 206 302 38.0
e 206 254 6.0
e 206 223 37.0
e 206 58 27.0
e 206 212 45.0
e 206 84 1.0
e 206 193 13.0
e 206 86 49.0
e 206 146 20.0
e 206 143 10.0
e 206 121 13.0
e 206 310 47.0
e 206 108 12.0
e 206 233 28.0
e 206 227 19.0
e 206 79 5.0
e 206 94 34.0
e 206 20 22.0
e 206 132 36.0
e 206 270 36.0
e 206 139 23.0
e 206 267 12.0
e 206 315 1.0
e 206 312 13.0
e 206 64 46.0
e 206 123 42.0
e 206 197 2.0
e 206 12 2.0
e 206 189 24.0
e 206 170 14.0
e 206 251 21.0
e 206 247 37.0
e 206 103 42.0
e 206 246 42.0
e 206 190 37.0
e 206 275 43.0
e 206 57 41.0
e 206 25 26.0
e 206 7 35.0
e 206 88 32.0
e 206 3 6.0
e 206 115 46.0
e 206 14 5.0
e 206 303 9.0
e 206 47 43.0
e 206 55 26.0
e 206 109 36.0
e 206 264 24.0
e 206 199 43.0
e 206 77 25.0
e 206 112 23.0
e 206 95 5.0
e 206 215 26.0
e 206 257 9.0
e 206 1 44.0
e 206 113 5.0
e 206 68 2.0
e 206 216 5.0
e 206 41 49.0
e 206 8 36.0
e 206 140 33.0
e 206 133 44.0
e 206 48 24.0
e 206 279 9.0
e 206 130 1.0
e 206 238 22.0
e 206 298 6.0
e 206 59 2.0
e 206 304 32.0
e 206 102 37.0
e 206 15 34.0
e 206 184 8.0
e 206 49 34.0
e 206 114 45.0
e 206 311 23.0
e 207 226 33.0
e 207 25 1.0
e 207 163 5.0
e 207 210 1.0
e 207 291 7.0
e 208 313 1.0
e 209 207 6.0
e 210 154 2.0
e 210 250 1.0
e 211 173 2.0
e 212 46 16.0
e 212 252 15.0
e 212 268 29.0
e 212 100 11.0
e 212 28 3.0
e 212 263 33.0
e 212 140 42.0
e 212 15 24.0
e 212 93 18.0
e 212 59 5.0
e 212 45 43.0
e 212 57 19.0
e 212 264 28.0
e 212 201 48.0
e 212 12 20.0
e 212 124 33.0
e 212 247 24.0
e 212 281 43.0
e 212 22 24.0
e 212 97 45.0
e 212 256 44.0
e 212 133 22.0
e 212 270 46.0
e 212 96 25.0
e 212 307 5.0
e 212 314 43.0
e 212 226 3.0
e 212 43 9.0
e 212 134 23.0
e 212 10 37.0
e 212 234 8.0
e 212 88 18.0
e 212 58 23.0
e 212 266 20.0
e 212 34 44.0
e 212 287 37.0
e 212 44 31.0
e 212 119 15.0
e 212 220 41.0
e 212 89 3.0
e 212 194 19.0
e 212 185 29.0
e 212 195 25.0
e 212 218 14.0
e 212 240 12.0
e 212 161 29.0
e 212 95 20.0
e 212 104 47.0
e 212 81 2.0
e 212 189 8.0
e 212 260 30.0
e 212 50 34.0
e 212 78 49.0
e 212 315 17.0
e 212 202 32.0
e 212 94 37.0
e 212 39 10.0
e 212 77 46.0
e 212 241 30.0
e 212 142 47.0
e 212 298 31.0
e 212 196 42.0
e 212 278 9.0
e 212 214 23.0
e 212 300 1.0
e 212 98 4.0
e 212 181 47.0
e 212 51 21.0
e 212 230 15.0
e 212 302 29.0
e 212 222 18.0
e 212 42 18.0
e 212 211 49.0
e 212 2 48.0
e 212 101 10.0
e 213 89 1.0
e 214 232 1.0
e 215 291 44.0
e 215 171 11.0
e 215 108 5.0
e 215 92 1.0
e 215 283 12.0
e 215 36 8.0
e 215 314 4.0
e 215 117 7.0
e 215 160 1.0
e 215 24 5.0
e 215 4 4.0
e 215 313 1.0
e 215 99 4.0
e 215 49 3.0
e 215 40 6.0
e 215 193 12.0
e 215 204 8.0
e 215 74 10.0
e 216 279 1.0
e 217 154 1.0
e 218 82 1.0
e 218 72 1.0
e 219 191 1.0
e 220 71 23.0
e 220 79 4.0
e 220 14 2.0
e 220 149 7.0
e 220 51 7.0
e 220 301 5.0
e 220 235 4.0
e 220 269 5.0
e 220 44 2.0
e 220 137 2.0
e 220 37 9.0
e 220 40 6.0
e 220 129 8.0
e 220 233 1.0
e 220 28 10.0
e 221 174 1.0
e 222 43 36.0
e 223 13 1.0
e 224 130 1.0
e 224 239 1.0
e 225 302 5.0
e 225 40 8.0
e 225 226 39.0
e 225 209 12.0
e 225 279 6.0
e 225 66 15.0
e 225 303 26.0
e 225 192 17.0
e 225 287 23.0
e 225 81 27.0
e 225 72 32.0
e 225 19 46.0
e 225 263 43.0
e 225 129 36.0
e 225 27 30.0
e 225 9 36.0
e 225 255 32.0
e 225 44 48.0
e 225 228 23.0
e 225 45 34.0
e 225 219 23.0
e 225 210 33.0
e 225 187 38.0
e 225 280 49.0
e 225 103 31.0
e 225 28 4.0
e 225 304 12.0
e 225 34 21.0
e 225 26 37.0
e 225 146 7.0
e 225 181 29.0
e 225 141 20.0
e 225 17 34.0
e 225 78 42.0
e 225 244 42.0
e 225 63 48.0
e 225 1 19.0
e 225 10 23.0
e 225 316 2.0
e 225 230 33.0
e 225 133 31.0
e 225 218 44.0
e 225 22 24.0
e 225 24 31.0
e 225 74 19.0
e 225 157 2.0
e 225 3 11.0
e 225 100 4.0
e 225 182 7.0
e 225 158 13.0
e 225 242 32.0
e 225 18 23.0
e 225 212 47.0
e 225 32 28.0
e 225 262 10.0
e 225 124 3.0
e 225 20 41.0
e 225 306 48.0
e 225 310 20.0
e 225 116 1.0
e 225 37 44.0
e 225 194 27.0
e 225 4 16.0
e 225 305 33.0
e 225 284 28.0
e 225 135 32.0
e 225 291 28.0
e 225 193 28.0
e 225 283 49.0
e 225 47 21.0
e 225 264 35.0
e 225 195 28.0
e 225 75 16.0
e 225 7 37.0
e 225 145 37.0
e 226 269 24.0
e 226 245 9.0
e 226 140 15.0
e 226 310 37.0
e 226 286 15.0
e 226 114 25.0
e 226 306 25.0
e 226 239 46.0
e 226 48 31.0
e 226 305 11.0
e 226 277 28.0
e 226 36 16.0
e 226 166 35.0
e 226 180 10.0
e 226 31 35.0
e 226 72 38.0
e 226 196 33.0
e 226 185 36.0
e 226 124 43.0
e 226 201 6.0
e 226 230 17.0
e 226 282 46.0
e 226 150 17.0
e 226 250 20.0
e 226 10 4.0
e 226 223 14.0
e 226 13 32.0
e 226 246 45.0
e 226 105 35.0
e 226 49 7.0
e 226 278 33.0
e 226 137 35.0
e 226 146 14.0
e 226 262 17.0
e 226 289 40.0
e 226 135 20.0
e 226 73 46.0
e 226 253 9.0
e 226 280 30.0
e 226 255 12.0
e 226 89 33.0
e 226 195 1.0
e 226 279 15.0
e 226 281 15.0
e 226 93 9.0
e 226 202 47.0
e 226 148 33.0
e 226 210 24.0
e 226 211 21.0
e 226 203 38.0
e 226 217 7.0
e 226 283 10.0
e 226 181 23.0
e 226 66 23.0
e 226 95 12.0
e 226 228 27.0
e 226 160 49.0
e 226 68 13.0
e 226 194 12.0
e 226 121 6.0
e 226 64 11.0
e 226 284 42.0
e 226 243 1.0
e 226 115 37.0
e 226 44 41.0
e 226 106 36.0
e 226 221 4.0
e 226 303 49.0
e 226 16 45.0
e 226 161 30.0
e 226 295 25.0
e 226 5 30.0
e 226 198 3.0
e 227 19 1.0
e 227 268 2.0
e 228 292 1.0
e 229 203 2.0
e 229 243 2.0
e 229 239 1.0
e 230 130 2.0
e 231 306 1.0
e 232 13 1.0
e 233 96 3.0
e 233 304 2.0
e 234 37 1.0
e 235 281 1.0
e 236 227 1.0
e 236 49 1.0
e 237 230 46.0
e 237 86 2.0
e 237 114 3.0
e 237 180 2.0
e 237 243 46.0
e 237 93 48.0
e 237 186 16.0
e 237 129 27.0
e 237 245 2.0
e 237 227 47.0
e 237 187 31.0
e 237 138 31.0
e 237 0 40.0
e 237 81 30.0
e 237 215 25.0
e 237 213 31.0
e 237 30 1.0
e 237 117 2.0
e 237 53 48.0
e 237 282 10.0
e 237 266 45.0
e 237 223 33.0
e 237 146 20.0
e 237 62 41.0
e 237 92 27.0
e 237 170 49.0
e 237 26 4.0
e 237 9 13.0
e 237 211 28.0
e 237 244 49.0
e 237 228 48.0
e 237 218 16.0
e 237 123 26.0
e 237 310 42.0
e 237 97 36.0
e 237 145 2.0
e 237 284 16.0
e 237 61 12.0
e 237 238 13.0
e 237 124 7.0
e 237 161 26.0
e 237 292 18.0
e 237 44 42.0
e 237 299 7.0
e 237 80 23.0
e 237 265 32.0
e 237 199 28.0
e 237 102 24.0
e 237 72 18.0
e 237 185 9.0
e 237 130 8.0
e 237 137 39.0
e 237 226 11.0
e 237 201 2.0
e 237 229 19.0
e 237 100 8.0
e 237 46 39.0
e 237 167 16.0
e 237 242 3.0
e 237 89 9.0
e 237 207 42.0
e 237 190 39.0
e 237 158 2.0
e 237 171 14.0
e 237 111 28.0
e 237 240 31.0
e 237 95 44.0
e 237 133 45.0
e 237 188 38.0
e 237 37 22.0
e 237 303 15.0
e 237 110 38.0
e 237 290 28.0
e 237 99 42.0
e 237 139 33.0
e 237 293 7.0
e 238 62 1.0
e 239 296 1.0
e 240 236 1.0
e 241 298 1.0
e 242 150 2.0
e 243 249 2.0
e 244 236 3.0
e 244 132 1.0
e 244 117 2.0
e 245 88 1.0
e 246 222 2.0
e 246 45 2.0
e 246 95 1.0
e 247 269 1.0
e 248 166 1.0
e 249 97 1.0
e 250 26 1.0
e 251 127 1.0
e 251 28 2.0
e 251 112 1.0
e 252 241 1.0
e 253 118 2.0
e 254 259 1.0
e 255 21 1.0
e 256 206 21.0
e 257 160 3.0
e 257 186 5.0
e 257 209 6.0
e 257 258 4.0
e 257 80 6.0
e 257 283 9.0
e 257 281 5.0
e 257 86 1.0
e 257 75 1.0
e 257 250 5.0
e 257 27 11.0
e 258 77 1.0
e 259 82 1.0
e 260 106 1.0
e 261 180 1.0
e 262 242 1.0
e 263 216 1.0
e 264 58 44.0
e 264 195 27.0
e 264 219 27.0
e 264 169 29.0
e 264 78 3.0
e 264 262 32.0
e 264 221 4.0
e 264 270 40.0
e 264 148 7.0
e 264 49 14.0
e 264 81 26.0
e 264 122 21.0
e 264 216 45.0
e 264 41 23.0
e 264 23 12.0
e 264 40 22.0
e 264 295 17.0
e 264 138 42.0
e 264 275 25.0
e 264 143 19.0
e 264 101 19.0
e 264 20 34.0
e 264 129 30.0
e 264 72 37.0
e 264 132 43.0
e 264 263 17.0
e 264 230 37.0
e 264 283 5.0
e 264 102 32.0
e 264 149 33.0
e 264 234 17.0
e 264 313 19.0
e 264 223 9.0
e 264 245 15.0
e 264 277 45.0
e 264 300 45.0
e 264 141 22.0
e 264 133 31.0
e 264 226 14.0
e 264 22 36.0
e 264 48 27.0
e 264 16 25.0
e 264 286 2.0
e 264 205 7.0
e 264 220 17.0
e 264 312 30.0
e 264 207 43.0
e 264 90 29.0
e 264 260 8.0
e 264 121 12.0
e 264 130 45.0
e 264 134 36.0
e 264 231 7.0
e 264 269 31.0
e 264 209 15.0
e 264 150 22.0
e 264 157 45.0
e 264 168 3.0
e 264 183 16.0
e 264 44 28.0
e 264 32 9.0
e 264 170 38.0
e 264 200 44.0
e 264 294 22.0
e 264 315 21.0
e 264 2 33.0
e 264 171 27.0
e 264 308 7.0
e 264 153 16.0
e 264 278 24.0
e 264 109 20.0
e 264 172 11.0
e 264 64 1.0
e 264 140 11.0
e 265 156 5.0
e 266 230 2.0
e 267 69 1.0
e 268 32 1.0
e 269 68 12.0
e 270 226 42.0
e 271 152 1.0
e 272 61 12.0
e 272 200 7.0
e 272 182 6.0
e 272 27 39.0
e 272 310 44.0
e 272 146 47.0
e 272 281 36.0
e 272 270 38.0
e 272 110 23.0
e 272 132 12.0
e 272 97 1.0
e 272 112 18.0
e 272 33 42.0
e 272 109 32.0
e 272 194 12.0
e 272 77 3.0
e 272 238 8.0
e 272 129 44.0
e 272 278 1.0
e 272 208 27.0
e 272 116 19.0
e 272 81 3.0
e 272 126 48.0
e 272 246 22.0
e 272 285 15.0
e 272 78 15.0
e 272 254 40.0
e 272 107 31.0
e 272 151 3.0
e 272 295 36.0
e 272 49 29.0
e 272 239 26.0
e 272 108 29.0
e 272 69 4.0
e 272 256 18.0
e 272 180 2.0
e 272 286 42.0
e 272 183 10.0
e 272 271 7.0
e 272 176 46.0
e 272 152 9.0
e 272 174 8.0
e 272 130 37.0
e 272 34 17.0
e 272 240 47.0
e 272 54 2.0
e 272 131 22.0
e 272 111 28.0
e 272 275 12.0
e 272 74 49.0
e 272 150 49.0
e 272 282 48.0
e 272 47 13.0
e 272 53 26.0
e 272 245 31.0
e 272 301 35.0
e 272 247 9.0
e 272 181 48.0
e 272 170 10.0
e 272 248 7.0
e 272 100 21.0
e 272 198 17.0
e 272 94 26.0
e 272 189 5.0
e 272 99 38.0
e 272 317 3.0
e 272 9 35.0
e 272 288 22.0
e 272 22 17.0
e 272 85 1.0
e 272 242 11.0
e 272 235 6.0
e 272 283 49.0
e 272 232 1.0
e 272 149 19.0
e 272 7 25.0
e 272 228 32.0
e 273 111 1.0
e 273 69 1.0
e 274 195 1.0
e 275 263 1.0
e 276 140 5.0
e 276 168 5.0
e 276 292 4.0
e 276 134 1.0
e 277 298 1.0
e 278 57 2.0
e 279 102 1.0
e 280 242 1.0
e 281 91 1.0
e 282 48 41.0
e 282 177 5.0
e 282 114 4.0
e 282 160 1.0
e 283 33 1.0
e 284 162 1.0
e 285 178 1.0
e 286 271 1.0
e 287 245 1.0
e 287 54 1.0
e 288 224 1.0
e 288 108 1.0
e 289 69 18.0
e 289 173 33.0
e 289 275 38.0
e 289 6 44.0
e 289 305 43.0
e 289 162 18.0
e 289 188 13.0
e 289 223 44.0
e 289 266 40.0
e 289 204 43.0
e 289 134 44.0
e 289 237 49.0
e 289 202 16.0
e 289 316 16.0
e 289 269 21.0
e 289 53 40.0
e 289 160 23.0
e 289 247 26.0
e 289 189 6.0
e 289 7 9.0
e 289 164 2.0
e 289 13 47.0
e 289 101 30.0
e 289 8 27.0
e 289 256 11.0
e 289 295 26.0
e 289 23 4.0
e 289 186 26.0
e 289 25 29.0
e 289 190 48.0
e 289 221 24.0
e 289 230 42.0
e 289 192 18.0
e 289 18 39.0
e 289 286 8.0
e 289 210 6.0
e 289 59 11.0
e 289 246 32.0
e 289 274 16.0
e 289 135 16.0
e 289 50 36.0
e 289 197 14.0
e 289 132 39.0
e 289 299 27.0
e 289 231 47.0
e 289 250 4.0
e 289 144 25.0
e 289 117 46.0
e 289 312 16.0
e 289 282 8.0
e 289 176 19.0
e 289 207 21.0
e 289 194 37.0
e 289 70 34.0
e 289 9 4.0
e 289 243 18.0
e 289 156 31.0
e 289 138 27.0
e 289 71 42.0
e 289 317 45.0
e 289 265 48.0
e 289 114 13.0
e 289 65 2.0
e 289 10 20.0
e 289 66 21.0
e 289 257 11.0
e 289 61 38.0
e 289 248 29.0
e 289 67 30.0
e 289 72 2.0
e 289 146 44.0
e 289 147 47.0
e 289 122 44.0
e 289 290 19.0
e 289 126 25.0
e 289 178 38.0
e 290 195 2.0
e 291 265 37.0
e 291 20 35.0
e 291 99 25.0
e 291 286 3.0
e 291 139 21.0
e 291 47 48.0
e 291 19 20.0
e 291 107 6.0
e 291 73 27.0
e 291 306 35.0
e 291 311 26.0
e 291 170 43.0
e 291 211 39.0
e 291 224 27.0
e 291 199 7.0
e 291 15 28.0
e 291 273 9.0
e 291 185 34.0
e 291 258 26.0
e 291 226 20.0
e 291 266 49.0
e 291 193 3.0
e 291 156 28.0
e 291 293 33.0
e 291 220 25.0
e 291 281 44.0
e 291 91 5.0
e 291 212 27.0
e 291 76 35.0
e 291 111 11.0
e 291 149 30.0
e 291 245 19.0
e 291 150 6.0
e 291 261 28.0
e 291 7 2.0
e 291 144 5.0
e 291 137 13.0
e 291 227 12.0
e 291 230 1.0
e 291 2 38.0
e 291 290 18.0
e 291 29 44.0
e 291 200 47.0
e 291 24 23.0
e 291 48 34.0
e 291 145 13.0
e 291 167 42.0
e 291 103 18.0
e 291 130 45.0
e 291 316 1.0
e 291 159 42.0
e 291 238 49.0
e 291 248 18.0
e 291 1 22.0
e 291 121 40.0
e 291 49 12.0
e 291 292 31.0
e 291 244 39.0
e 291 294 30.0
e 291 242 49.0
e 291 108 19.0
e 291 62 4.0
e 291 109 13.0
e 291 313 43.0
e 291 84 43.0
e 291 3 7.0
e 291 35 35.0
e 291 63 43.0
e 291 4 18.0
e 291 154 5.0
e 291 240 38.0
e 291 295 43.0
e 291 95 34.0
e 292 141 1.0
e 293 289 37.0
e 293 109 37.0
e 293 252 47.0
e 293 253 22.0
e 293 143 40.0
e 293 230 38.0
e 293 295 1.0
e 293 13 23.0
e 293 192 38.0
e 293 238 4.0
e 293 150 27.0
e 293 270 15.0
e 293 24 47.0
e 293 147 35.0
e 293 41 46.0
e 293 254 25.0
e 293 151 28.0
e 293 262 10.0
e 293 231 10.0
e 293 292 49.0
e 293 236 31.0
e 293 259 48.0
e 293 110 46.0
e 293 133 49.0
e 293 198 27.0
e 293 159 41.0
e 293 208 14.0
e 293 300 23.0
e 293 232 31.0
e 293 140 22.0
e 293 276 45.0
e 293 201 5.0
e 293 256 1.0
e 293 200 8.0
e 293 181 8.0
e 293 233 45.0
e 293 263 11.0
e 293 194 8.0
e 293 182 33.0
e 293 94 36.0
e 293 67 2.0
e 293 25 12.0
e 293 299 4.0
e 293 161 28.0
e 293 279 27.0
e 293 32 11.0
e 293 255 32.0
e 293 171 5.0
e 293 241 3.0
e 293 261 38.0
e 293 167 21.0
e 293 169 33.0
e 293 152 49.0
e 293 97 25.0
e 293 52 1.0
e 293 168 49.0
e 293 175 17.0
e 293 29 33.0
e 293 301 40.0
e 293 278 1.0
e 293 70 41.0
e 293 105 34.0
e 293 266 25.0
e 293 162 45.0
e 293 136 4.0
e 293 258 2.0
e 293 264 47.0
e 293 137 23.0
e 293 141 43.0
e 293 249 31.0
e 293 203 20.0
e 293 206 5.0
e 293 248 35.0
e 293 189 36.0
e 293 314 39.0
e 293 51 15.0
e 294 124 1.0
e 295 231 1.0
e 296 44 1.0
e 297 225 25.0
e 297 24 1.0
e 297 180 2.0
e 297 231 1.0
e 297 59 1.0
e 298 165 1.0
e 299 0 1.0
e 300 299 1.0
e 301 7 1.0
e 302 146 1.0
e 303 222 3.0
e 304 169 2.0
e 305 35 1.0
e 306 35 1.0
e 307 22 1.0
e 308 202 14.0
e 308 123 39.0
e 308 210 30.0
e 308 309 46.0
e 308 245 46.0
e 308 181 13.0
e 308 232 37.0
e 308 316 21.0
e 308 7 24.0
e 308 277 26.0
e 308 1 7.0
e 308 2 45.0
e 308 135 39.0
e 308 149 1.0
e 308 79 12.0
e 308 241 43.0
e 308 254 42.0
e 308 153 29.0
e 308 74 28.0
e 308 217 11.0
e 308 248 46.0
e 308 256 24.0
e 308 119 20.0
e 308 213 20.0
e 308 144 43.0
e 308 314 2.0
e 308 66 21.0
e 308 52 49.0
e 308 69 34.0
e 308 131 5.0
e 308 276 31.0
e 308 107 48.0
e 308 111 46.0
e 308 287 30.0
e 308 132 19.0
e 308 186 21.0
e 308 297 11.0
e 308 221 39.0
e 308 251 39.0
e 308 87 17.0
e 308 98 33.0
e 308 194 26.0
e 308 160 40.0
e 308 128 44.0
e 308 53 40.0
e 308 43 45.0
e 308 249 45.0
e 308 38 14.0
e 308 22 23.0
e 308 234 17.0
e 308 293 27.0
e 308 279 16.0
e 308 146 22.0
e 308 133 25.0
e 308 55 25.0
e 308 173 21.0
e 308 215 7.0
e 308 294 25.0
e 308 302 34.0
e 308 134 28.0
e 308 253 49.0
e 308 214 29.0
e 308 62 13.0
e 308 310 39.0
e 308 255 22.0
e 308 258 22.0
e 308 195 19.0
e 308 84 49.0
e 308 0 48.0
e 308 124 20.0
e 309 57 1.0
e 310 221 1.0
e 311 158 2.0
e 312 161 31.0
e 312 44 17.0
e 312 313 46.0
e 312 108 17.0
e 312 177 7.0
e 312 308 31.0
e 312 53 34.0
e 312 311 4.0
e 312 247 11.0
e 312 222 37.0
e 312 210 23.0
e 312 92 18.0
e 312 156 39.0
e 312 275 29.0
e 312 172 43.0
e 312 301 26.0
e 312 228 30.0
e 312 199 20.0
e 312 70 14.0
e 312 231 9.0
e 312 5 32.0
e 312 94 37.0
e 312 219 41.0
e 312 279 16.0
e 312 54 3.0
e 312 244 31.0
e 312 248 45.0
e 312 282 24.0
e 312 50 19.0
e 312 63 35.0
e 312 157 18.0
e 312 117 14.0
e 312 15 45.0
e 312 109 11.0
e 312 99 28.0
e 312 216 11.0
e 312 132 18.0
e 312 0 5.0
e 312 204 48.0
e 312 158 10.0
e 312 240 19.0
e 312 304 8.0
e 312 201 4.0
e 312 243 47.0
e 312 33 10.0
e 312 4 9.0
e 312 182 47.0
e 312 274 37.0
e 312 71 49.0
e 312 29 30.0
e 312 159 44.0
e 312 24 16.0
e 312 85 10.0
e 312 18 15.0
e 312 110 7.0
e 312 45 4.0
e 312 227 17.0
e 312 294 10.0
e 312 91 7.0
e 312 318 18.0
e 312 145 38.0
e 312 39 40.0
e 312 202 2.0
e 312 238 48.0
e 312 147 48.0
e 312 245 34.0
e 312 295 45.0
e 312 102 12.0
e 312 64 9.0
e 312 239 17.0
e 312 286 31.0
e 312 292 18.0
e 312 105 30.0
e 312 276 14.0
e 312 277 41.0
e 313 122 2.0
e 314 242 2.0
e 315 34 1.0
e 316 198 4.0
e 317 256 3.0
e 317 146 5.0
e 317 129 4.0
e 317 120 3.0
e 318 129 2.0
e 319 79 1.0
e 319 138 1.0
e 319 248 1.0
